B2Mg1   [HEX,HEX,hP3] (STD_PRIM doi:10.1
1.000000
   1.53669150599024  -2.66159133715313   0.00000000000000
   1.53669150599024   2.66159133715313   0.00000000000000
   0.00000000000000   0.00000000000000   3.53434765671910
2 1 
Direct(3) [A2B1] 
   0.33332615575824   0.66667384424176   0.50000000000000  B     
   0.66667384424176   0.33332615575824   0.50000000000000  B     
   0.00000000000000   0.00000000000000   0.00000000000000  Mg    
