System
1.0
0.0 2.9816143035966913 2.9816143035966913
2.9816143035966913 0.0 2.9816143035966913
2.9816143035966913 2.9816143035966913 0.0
Li I
1 1
direct
0.0 0.0 0.0 
0.5 0.5 0.5 
