System
1.0
0.0 1.813104748383827 1.813104748383827
1.813104748383827 0.0 1.813104748383827
1.813104748383827 1.813104748383827 0.0
Cu
1
direct
0.0 0.0 0.0 
