System
1.0
0.0 3.508946266110025 3.508946266110025
3.508946266110025 0.0 3.508946266110025
3.508946266110025 3.508946266110025 0.0
K I
1 1
direct
2.7755575615628914e-17 2.7755575615628914e-17 2.7755575615628914e-17 
0.5 0.5 0.5 
