System
1.0
0.0 1.9689269249218528 1.9689269249218528
1.9689269249218528 0.0 1.9689269249218528
1.9689269249218528 1.9689269249218528 0.0
Pd
1
direct
0.0 0.0 0.0 
