System
1.0
0.0 3.0839453441785243 3.0839453441785243
3.0839453441785243 0.0 3.0839453441785243
3.0839453441785243 3.0839453441785243 0.0
Se Cd
1 1
direct
0.25 0.25 0.25 
0.0 0.0 0.0 
