System
1.0
0.0 3.2916078166674545 3.2916078166674545
3.2916078166674545 0.0 3.2916078166674545
3.2916078166674545 3.2916078166674545 0.0
Cd Te
1 1
direct
0.0 0.0 0.0 
0.25 0.25 0.25 
