System
1.0
0.0 1.7560092600427424 1.7560092600427424
1.7560092600427424 0.0 1.7560092600427424
1.7560092600427424 1.7560092600427424 0.0
Ni
1
direct
0.0 0.0 0.0 
