System
1.0
-1.5812419189547615 1.5812419189547615 1.5812419189547615
1.5812419189547615 -1.5812419189547615 1.5812419189547615
1.5812419189547615 1.5812419189547615 -1.5812419189547615
Mo
1
direct
0.0 0.0 0.0 
