System
1.0
-1.494225150407248 1.494225150407248 1.494225150407248
1.494225150407248 -1.494225150407248 1.494225150407248
1.494225150407248 1.494225150407248 -1.494225150407248
V
1
direct
0.0 0.0 0.0 
