System
1.0
0.0 3.430974474487558 3.430974474487558
3.430974474487558 0.0 3.430974474487558
3.430974474487558 3.430974474487558 0.0
Br Rb
1 1
direct
0.5 0.5 0.5 
2.7755575615628914e-17 2.7755575615628914e-17 2.7755575615628914e-17 
