System
1.0
0.0 2.231146523409265 2.231146523409265
2.231146523409265 0.0 2.231146523409265
2.231146523409265 2.231146523409265 0.0
N Nb
1 1
direct
0.0 0.0 0.0 
0.5 0.5 0.5 
