System
1.0
0.0 2.8791278368431086 2.8791278368431086
2.8791278368431086 0.0 2.8791278368431086
2.8791278368431086 2.8791278368431086 0.0
Ge
2
direct
0.5 0.5 0.5 
0.75 0.75 0.75 
