System
1.0
3.85695013101842 0.0 0.0
0.0 3.85695013101842 0.0
0.0 0.0 3.85695013101842
Sr V O
1 1 3
direct
0.5 0.5 0.5 
0.0 0.0 0.0 
0.0 0.5 0.0 
0.0 0.0 0.5 
0.5 0.0 0.0 
