System
1.0
0.0 3.0975284284263083 3.0975284284263083
3.0975284284263083 0.0 3.0975284284263083
3.0975284284263083 3.0975284284263083 0.0
Ga Sb
1 1
direct
2.7755575615628914e-17 2.7755575615628914e-17 2.7755575615628914e-17 
0.25 0.25 0.25 
