System
1.0
0.0 2.952987990485972 2.952987990485972
2.952987990485972 0.0 2.952987990485972
2.952987990485972 2.952987990485972 0.0
S Cd
1 1
direct
0.75 0.75 0.75 
0.0 0.0 0.0 
