System
1.0
0.0 2.0337054489323454 2.0337054489323454
2.0337054489323454 0.0 2.0337054489323454
2.0337054489323454 2.0337054489323454 0.0
Al
1
direct
0.0 0.0 0.0 
