System
1.0
0.0 3.2796981029328953 3.2796981029328953
3.2796981029328953 0.0 3.2796981029328953
3.2796981029328953 3.2796981029328953 0.0
K Br
1 1
direct
0.0 0.0 0.0 
0.5 0.5 0.5 
