System
1.0
0.0 2.266867373912232 2.266867373912232
2.266867373912232 0.0 2.266867373912232
2.266867373912232 2.266867373912232 0.0
N Hf
1 1
direct
0.5 0.5 0.5 
2.7755575615628914e-17 2.7755575615628914e-17 2.7755575615628914e-17 
