System
1.0
0.0 2.506484259757888 2.506484259757888
2.506484259757888 0.0 2.506484259757888
2.506484259757888 2.506484259757888 0.0
Pb
1
direct
0.0 0.0 0.0 
