System
1.0
0.0 1.8121030164392746 1.8121030164392746
1.8121030164392746 0.0 1.8121030164392746
1.8121030164392746 1.8121030164392746 0.0
B N
1 1
direct
2.7755575615628914e-17 2.7755575615628914e-17 2.7755575615628914e-17 
0.75 0.75 0.75 
