System
1.0
0.0 2.3033184899706396 2.3033184899706396
2.3033184899706396 0.0 2.3033184899706396
2.3033184899706396 2.3033184899706396 0.0
Zn O
1 1
direct
0.0 0.0 0.0 
0.25 0.25 0.25 
