System
1.0
0.0 2.805561048187745 2.805561048187745
2.805561048187745 0.0 2.805561048187745
2.805561048187745 2.805561048187745 0.0
Na Cl
1 1
direct
-5.551115123125783e-17 -5.551115123125783e-17 -5.551115123125783e-17 
0.4999999999999999 0.5 0.5 
