System
1.0
0.0 3.1128502837601695 3.1128502837601695
3.1128502837601695 0.0 3.1128502837601695
3.1128502837601695 3.1128502837601695 0.0
Al Sb
1 1
direct
0.0 0.0 0.0 
0.25 0.25 0.25 
