System
1.0
0.0 2.1138970491729143 2.1138970491729143
2.1138970491729143 0.0 2.1138970491729143
2.1138970491729143 2.1138970491729143 0.0
O Mg
1 1
direct
0.5 0.5 0.5 
0.0 0.0 0.0 
