System
1.0
0.0 2.062005839898934 2.062005839898934
2.062005839898934 0.0 2.062005839898934
2.062005839898934 2.062005839898934 0.0
Ag
1
direct
2.7755575615628914e-17 2.7755575615628914e-17 2.7755575615628914e-17 
