System
1.0
-1.5904837956595526 1.5904837956595526 1.5904837956595526
1.5904837956595526 -1.5904837956595526 1.5904837956595526
1.5904837956595526 1.5904837956595526 -1.5904837956595526
W
1
direct
0.0 0.0 0.0 
