System
1.0
0.0 2.7164794138731545 2.7164794138731545
2.7164794138731545 0.0 2.7164794138731545
2.7164794138731545 2.7164794138731545 0.0
S Zn
1 1
direct
0.75 0.75 0.75 
0.0 0.0 0.0 
