System
1.0
0.0 1.988385631966043 1.988385631966043
1.988385631966043 0.0 1.988385631966043
1.988385631966043 1.988385631966043 0.0
Pt
1
direct
0.0 0.0 0.0 
