System
1.0
0.0 2.2536446086588175 2.2536446086588175
2.2536446086588175 0.0 2.2536446086588175
2.2536446086588175 2.2536446086588175 0.0
N Sc
1 1
direct
0.5 0.5 0.5 
0.0 0.0 0.0 
