System
1.0
0.0 2.7571512348228713 2.7571512348228713
2.7571512348228713 0.0 2.7571512348228713
2.7571512348228713 2.7571512348228713 0.0
Al P
1 1
direct
0.0 0.0 0.0 
0.75 0.75 0.75 
