System
1.0
0.0 2.5474921769247625 2.5474921769247625
2.5474921769247625 0.0 2.5474921769247625
2.5474921769247625 2.5474921769247625 0.0
Li Cl
1 1
direct
0.0 0.0 0.0 
0.5 0.5 0.5 
