System
1.0
0.0 2.968767064290388 2.968767064290388
2.968767064290388 0.0 2.968767064290388
2.968767064290388 2.968767064290388 0.0
Na Br
1 1
direct
2.7755575615628914e-17 2.7755575615628914e-17 2.7755575615628914e-17 
0.5 0.5 0.5 
