System
1.0
0.0 2.749733224776038 2.749733224776038
2.749733224776038 0.0 2.749733224776038
2.749733224776038 2.749733224776038 0.0
P Ga
1 1
direct
0.75 0.75 0.75 
0.0 0.0 0.0 
