System
1.0
0.0 2.1262773962489585 2.1262773962489585
2.1262773962489585 0.0 2.1262773962489585
2.1262773962489585 2.1262773962489585 0.0
N Ti
1 1
direct
0.5 0.5 0.5 
0.0 0.0 0.0 
