System
1.0
0.0 2.0644972371279877 2.0644972371279877
2.0644972371279877 0.0 2.0644972371279877
2.0644972371279877 2.0644972371279877 0.0
N V
1 1
direct
0.5 0.5 0.5 
0.0 0.0 0.0 
