System
1.0
0.0 3.3048915101153216 3.3048915101153216
3.3048915101153216 0.0 3.3048915101153216
3.3048915101153216 3.3048915101153216 0.0
In Sb
1 1
direct
0.0 0.0 0.0 
0.25 0.25 0.25 
