System
1.0
4.019548289068872 0.0 0.0
0.0 4.019548289068872 0.0
0.0 0.0 4.019548289068872
K Ta O
1 1 3
direct
0.5 0.5 0.5 
0.0 0.0 0.0 
0.0 0.5 0.0 
0.0 0.0 0.5 
0.5 0.0 0.0 
