System
1.0
0.0 2.301294717177742 2.301294717177742
2.301294717177742 0.0 2.301294717177742
2.301294717177742 2.301294717177742 0.0
N Zr
1 1
direct
0.0 0.0 0.0 
0.5 0.5 0.5 
