System
1.0
0.0 3.129825222848112 3.129825222848112
3.129825222848112 0.0 3.129825222848112
3.129825222848112 3.129825222848112 0.0
Cl K
1 1
direct
0.5 0.5 0.5 
0.0 0.0 0.0 
