System
1.0
3.9316431855389147 0.0 0.0
0.0 3.9316431855389147 0.0
0.0 0.0 3.9316431855389147
Sr Ti O
1 1 3
direct
0.0 0.0 0.0 
0.5 0.5 0.5 
0.5 0.0 0.5 
0.5 0.5 0.0 
0.0 0.5 0.5 
