System
1.0
0.0 2.1941118644613864 2.1941118644613864
2.1941118644613864 0.0 2.1941118644613864
2.1941118644613864 2.1941118644613864 0.0
Cr N
1 1
direct
0.25 0.25 0.25 
0.0 0.0 0.0 
