System
1.0
0.0 2.820431491810391 2.820431491810391
2.820431491810391 0.0 2.820431491810391
2.820431491810391 2.820431491810391 0.0
F Rb
1 1
direct
0.5 0.5 0.5 
0.0 0.0 0.0 
