System
1.0
0.0 2.9775841907716605 2.9775841907716605
2.9775841907716605 0.0 2.9775841907716605
2.9775841907716605 2.9775841907716605 0.0
P In
1 1
direct
0.25 0.25 0.25 
0.0 0.0 0.0 
