System
1.0
0.0 2.076443787222036 2.076443787222036
2.076443787222036 0.0 2.076443787222036
2.076443787222036 2.076443787222036 0.0
Au
1
direct
0.0 0.0 0.0 
