System
1.0
0.0 2.1692835863768773 2.1692835863768773
2.1692835863768773 0.0 2.1692835863768773
2.1692835863768773 2.1692835863768773 0.0
C Ti
1 1
direct
0.4999999999999999 0.5 0.5 
-5.551115123125783e-17 -5.551115123125783e-17 -5.551115123125783e-17 
