System
1.0
0.0 3.0847254151551873 3.0847254151551873
3.0847254151551873 0.0 3.0847254151551873
3.0847254151551873 3.0847254151551873 0.0
As In
1 1
direct
0.0 0.0 0.0 
0.25 0.25 0.25 
