System
1.0
-1.6558314843260387 1.6558314843260387 1.6558314843260387
1.6558314843260387 -1.6558314843260387 1.6558314843260387
1.6558314843260387 1.6558314843260387 -1.6558314843260387
Ta
1
direct
0.0 0.0 0.0 
