System
1.0
0.0 2.663384844691245 2.663384844691245
2.663384844691245 0.0 2.663384844691245
2.663384844691245 2.663384844691245 0.0
F K
1 1
direct
0.5 0.5 0.5 
2.7755575615628914e-17 2.7755575615628914e-17 2.7755575615628914e-17 
