System
1.0
0.0 3.655588139972927 3.655588139972927
3.655588139972927 0.0 3.655588139972927
3.655588139972927 3.655588139972927 0.0
Rb I
1 1
direct
2.7755575615628914e-17 2.7755575615628914e-17 2.7755575615628914e-17 
0.5 0.5 0.5 
