System
1.0
0.0 2.8658173621060503 2.8658173621060503
2.8658173621060503 0.0 2.8658173621060503
2.8658173621060503 2.8658173621060503 0.0
Ga As
1 1
direct
0.0 0.0 0.0 
0.25 0.25 0.25 
